p wcnf 16 23 15
15 1 -2 -3 0
15 4 -1 -5 0
15 6 -3 -5 0
15 7 -2 -8 0
15 4 -2 -6 0
15 2 0
15 8 0
15 5 0
15 4 0
15 3 0
15 1 0
15 9 0
1 10 -9 0
1 14 -13 0
1 15 -12 0
1 16 -11 0
3 11 -9 -3 0
3 12 -9 -8 0
3 13 -9 -6 0
2 -3 -9 0
2 -8 -9 0
2 -6 -9 0
2 -5 -11 0
